p tw 20 87
1 2
1 11
1 12
1 13
1 14
1 16
1 17
1 20
1 3
1 4
1 6
1 7
1 8
1 10
2 11
2 12
2 16
2 17
2 19
2 4
2 6
2 8
2 10
12 14
15 17
3 12
3 13
3 16
3 17
3 18
3 4
3 6
4 12
4 13
4 14
4 16
4 17
4 18
4 19
4 20
4 5
4 6
4 8
4 9
4 10
5 11
5 12
5 13
5 18
5 19
5 8
5 9
6 13
6 14
6 15
6 18
6 20
6 8
6 10
7 11
7 14
7 16
7 17
7 18
7 20
7 8
7 9
8 11
8 12
8 13
8 16
8 17
8 18
8 20
9 11
9 13
9 14
9 15
9 16
9 17
9 18
9 20
10 11
10 12
10 15
10 18
10 19
